[runlim] version:		1.10
[runlim] time limit:		311040000 seconds
[runlim] real time limit:	600 seconds
[runlim] space limit:		14000 MB
[runlim] argv[0]:		python3
[runlim] argv[1]:		-u
[runlim] argv[2]:		mip.py
[runlim] argv[3]:		graph02
[runlim] start:			Tue Jan 20 19:43:33 2026
[runlim] main pid:		199336
Building MIP model...
[runlim] sample:		10.0 time, 10.3 real, 32.6 MB
[runlim] sample:		20.0 time, 20.3 real, 34.6 MB
[runlim] sample:		30.0 time, 30.3 real, 37.4 MB
Build time: 30.18s
Solving MIP (minimizing number of labels)...
Version identifier: 22.1.1.0 | 2022-11-28 | 9160aff4d
CPXPARAM_Read_DataCheck                          1
Legacy callback                                  i
Tried aggregator 2 times.
MIP Presolve eliminated 170147 rows and 0 columns.
MIP Presolve modified 20087 coefficients.
Aggregator did 7312 substitutions.
Reduced MIP has 20306 rows, 7360 columns, and 177645 nonzeros.
Reduced MIP has 7360 binaries, 0 generals, 0 SOSs, and 0 indicators.
Presolve time = 0.62 sec. (600.08 ticks)
Found incumbent of value 48.000000 after 0.77 sec. (821.01 ticks)
Probing time = 0.01 sec. (3.43 ticks)
Tried aggregator 1 time.
Detecting symmetries...
Reduced MIP has 20306 rows, 7360 columns, and 177645 nonzeros.
Reduced MIP has 7360 binaries, 0 generals, 0 SOSs, and 0 indicators.
Presolve time = 0.16 sec. (171.98 ticks)
Probing time = 0.02 sec. (3.82 ticks)
Clique table members: 20306.
MIP emphasis: balance optimality and feasibility.
MIP search method: dynamic search.
Parallel mode: deterministic, using up to 12 threads.
Root relaxation solution time = 2.09 sec. (1825.10 ticks)

        Nodes                                         Cuts/
   Node  Left     Objective  IInf  Best Integer    Best Bound    ItCnt     Gap

*     0+    0                           48.0000        0.0000           100.00%
*     0+    0                           20.0000        0.0000           100.00%
*     0+    0                           18.0000        0.0000           100.00%
      0     0       14.0000   995       18.0000       14.0000     7168   22.22%

========== NEW INCUMBENT SOLUTION ==========
{1: 156, 2: 394, 3: 156, 4: 394, 5: 156, 6: 394, 7: 394, 8: 156, 9: 310, 10: 72, 11: 268, 12: 30, 13: 310, 14: 72, 15: 394, 16: 156, 17: 394, 18: 156, 19: 394, 20: 156, 21: 428, 22: 666, 23: 72, 24: 310, 25: 394, 26: 156, 27: 722, 28: 484, 29: 778, 30: 540, 31: 156, 32: 394, 33: 156, 34: 394, 35: 666, 36: 428, 37: 722, 38: 484, 39: 156, 40: 394, 41: 722, 42: 484, 43: 310, 44: 72, 45: 666, 46: 428, 47: 394, 48: 156, 49: 778, 50: 540, 51: 72, 52: 310, 53: 478, 54: 240, 55: 156, 56: 394, 57: 394, 58: 156, 59: 310, 60: 72, 61: 310, 62: 72, 63: 310, 64: 72, 65: 310, 66: 72, 67: 666, 68: 428, 69: 484, 70: 722, 71: 240, 72: 478, 73: 156, 74: 394, 75: 428, 76: 666, 77: 72, 78: 310, 79: 484, 80: 722, 81: 484, 82: 722, 83: 394, 84: 156, 85: 268, 86: 30, 87: 310, 88: 72, 89: 540, 90: 778, 91: 394, 92: 156, 93: 484, 94: 722, 95: 72, 96: 310, 97: 156, 98: 394, 99: 310, 100: 72, 101: 722, 102: 484, 103: 778, 104: 540, 105: 722, 106: 484, 107: 428, 108: 666, 109: 540, 110: 778, 111: 268, 112: 30, 113: 72, 114: 310, 115: 484, 116: 722, 117: 156, 118: 394, 119: 170, 120: 408, 121: 428, 122: 666, 123: 428, 124: 666, 125: 428, 126: 666, 127: 666, 128: 428, 129: 240, 130: 478, 131: 484, 132: 722, 133: 778, 134: 540, 135: 170, 136: 408, 137: 722, 138: 484, 139: 484, 140: 722, 141: 666, 142: 428, 143: 428, 144: 666, 145: 484, 146: 722, 147: 722, 148: 484, 149: 722, 150: 484, 151: 666, 152: 428, 153: 268, 154: 30, 155: 408, 156: 170, 157: 156, 158: 394, 159: 722, 160: 484, 161: 156, 162: 394, 163: 408, 164: 170, 165: 72, 166: 310, 167: 338, 168: 100, 169: 484, 170: 722, 171: 484, 172: 722, 173: 72, 174: 310, 175: 268, 176: 30, 177: 310, 178: 72, 179: 170, 180: 408, 181: 310, 182: 72, 183: 428, 184: 666, 185: 428, 186: 666, 187: 30, 188: 268, 189: 240, 190: 478, 191: 428, 192: 666, 193: 428, 194: 666, 195: 72, 196: 310, 197: 156, 198: 394, 199: 428, 200: 666, 201: 100, 202: 338, 203: 722, 204: 484, 205: 722, 206: 484, 207: 156, 208: 394, 209: 722, 210: 484, 211: 778, 212: 540, 213: 240, 214: 478, 215: 30, 216: 268, 217: 72, 218: 310, 219: 72, 220: 310, 221: 394, 222: 156, 223: 72, 224: 310, 225: 156, 226: 394, 227: 478, 228: 240, 229: 484, 230: 722, 231: 100, 232: 338, 233: 310, 234: 72, 235: 484, 236: 722, 237: 72, 238: 310, 239: 484, 240: 722, 241: 338, 242: 100, 243: 666, 244: 428, 245: 30, 246: 268, 247: 478, 248: 240, 249: 778, 250: 540, 251: 30, 252: 268, 253: 778, 254: 540, 255: 478, 256: 240, 257: 394, 258: 156, 259: 478, 260: 240, 261: 666, 262: 428, 263: 478, 264: 240, 265: 240, 266: 478, 267: 666, 268: 428, 269: 540, 270: 778, 271: 30, 272: 268, 273: 72, 274: 310, 275: 778, 276: 540, 277: 428, 278: 666, 279: 72, 280: 310, 281: 310, 282: 72, 283: 156, 284: 394, 285: 240, 286: 478, 287: 30, 288: 268, 289: 484, 290: 722, 291: 408, 292: 170, 293: 408, 294: 170, 295: 310, 296: 72, 297: 170, 298: 408, 299: 478, 300: 240, 301: 666, 302: 428, 303: 428, 304: 666, 305: 156, 306: 394, 307: 722, 308: 484, 309: 408, 310: 170, 311: 240, 312: 478, 313: 170, 314: 408, 315: 428, 316: 666, 317: 170, 318: 408, 319: 100, 320: 338, 321: 72, 322: 310, 323: 778, 324: 540, 325: 722, 326: 484, 327: 394, 328: 156, 329: 72, 330: 310, 331: 268, 332: 30, 333: 540, 334: 778, 335: 268, 336: 30, 337: 156, 338: 394, 339: 408, 340: 170, 341: 722, 342: 484, 343: 156, 344: 394, 345: 722, 346: 484, 347: 540, 348: 778, 349: 170, 350: 408, 351: 170, 352: 408, 353: 484, 354: 722, 355: 156, 356: 394, 357: 484, 358: 722, 359: 484, 360: 722, 361: 310, 362: 72, 363: 394, 364: 156, 365: 428, 366: 666, 367: 484, 368: 722, 369: 72, 370: 310, 371: 30, 372: 268, 373: 394, 374: 156, 375: 428, 376: 666, 377: 338, 378: 100, 379: 394, 380: 156, 381: 268, 382: 30, 383: 394, 384: 156, 385: 428, 386: 666, 387: 428, 388: 666, 389: 484, 390: 722, 391: 156, 392: 394, 393: 666, 394: 428, 395: 72, 396: 310, 397: 778, 398: 540, 399: 484, 400: 722}
Number of labels used: 18
Total time: 33.32 sec
Memory: 278.21 MB
=============================================

========== NEW INCUMBENT SOLUTION ==========
{1: 156, 2: 394, 3: 156, 4: 394, 5: 156, 6: 394, 7: 394, 8: 156, 9: 310, 10: 72, 11: 268, 12: 30, 13: 310, 14: 72, 15: 394, 16: 156, 17: 394, 18: 156, 19: 394, 20: 156, 21: 428, 22: 666, 23: 72, 24: 310, 25: 394, 26: 156, 27: 722, 28: 484, 29: 778, 30: 540, 31: 156, 32: 394, 33: 156, 34: 394, 35: 666, 36: 428, 37: 722, 38: 484, 39: 156, 40: 394, 41: 722, 42: 484, 43: 310, 44: 72, 45: 666, 46: 428, 47: 394, 48: 156, 49: 778, 50: 540, 51: 72, 52: 310, 53: 478, 54: 240, 55: 156, 56: 394, 57: 394, 58: 156, 59: 310, 60: 72, 61: 310, 62: 72, 63: 310, 64: 72, 65: 310, 66: 72, 67: 666, 68: 428, 69: 484, 70: 722, 71: 240, 72: 478, 73: 156, 74: 394, 75: 428, 76: 666, 77: 72, 78: 310, 79: 484, 80: 722, 81: 484, 82: 722, 83: 394, 84: 156, 85: 268, 86: 30, 87: 310, 88: 72, 89: 540, 90: 778, 91: 394, 92: 156, 93: 484, 94: 722, 95: 72, 96: 310, 97: 156, 98: 394, 99: 310, 100: 72, 101: 722, 102: 484, 103: 778, 104: 540, 105: 722, 106: 484, 107: 428, 108: 666, 109: 540, 110: 778, 111: 268, 112: 30, 113: 72, 114: 310, 115: 484, 116: 722, 117: 156, 118: 394, 119: 170, 120: 408, 121: 428, 122: 666, 123: 428, 124: 666, 125: 428, 126: 666, 127: 666, 128: 428, 129: 240, 130: 478, 131: 484, 132: 722, 133: 778, 134: 540, 135: 170, 136: 408, 137: 722, 138: 484, 139: 484, 140: 722, 141: 666, 142: 428, 143: 428, 144: 666, 145: 484, 146: 722, 147: 722, 148: 484, 149: 722, 150: 484, 151: 666, 152: 428, 153: 268, 154: 30, 155: 408, 156: 170, 157: 156, 158: 394, 159: 722, 160: 484, 161: 156, 162: 394, 163: 408, 164: 170, 165: 72, 166: 310, 167: 338, 168: 100, 169: 484, 170: 722, 171: 484, 172: 722, 173: 72, 174: 310, 175: 268, 176: 30, 177: 310, 178: 72, 179: 170, 180: 408, 181: 310, 182: 72, 183: 428, 184: 666, 185: 428, 186: 666, 187: 30, 188: 268, 189: 240, 190: 478, 191: 428, 192: 666, 193: 428, 194: 666, 195: 72, 196: 310, 197: 156, 198: 394, 199: 428, 200: 666, 201: 100, 202: 338, 203: 722, 204: 484, 205: 722, 206: 484, 207: 156, 208: 394, 209: 722, 210: 484, 211: 778, 212: 540, 213: 240, 214: 478, 215: 30, 216: 268, 217: 72, 218: 310, 219: 72, 220: 310, 221: 394, 222: 156, 223: 72, 224: 310, 225: 156, 226: 394, 227: 478, 228: 240, 229: 484, 230: 722, 231: 100, 232: 338, 233: 310, 234: 72, 235: 484, 236: 722, 237: 72, 238: 310, 239: 484, 240: 722, 241: 338, 242: 100, 243: 666, 244: 428, 245: 30, 246: 268, 247: 478, 248: 240, 249: 778, 250: 540, 251: 30, 252: 268, 253: 778, 254: 540, 255: 478, 256: 240, 257: 394, 258: 156, 259: 478, 260: 240, 261: 666, 262: 428, 263: 478, 264: 240, 265: 240, 266: 478, 267: 666, 268: 428, 269: 540, 270: 778, 271: 30, 272: 268, 273: 72, 274: 310, 275: 778, 276: 540, 277: 428, 278: 666, 279: 72, 280: 310, 281: 310, 282: 72, 283: 156, 284: 394, 285: 240, 286: 478, 287: 30, 288: 268, 289: 484, 290: 722, 291: 408, 292: 170, 293: 408, 294: 170, 295: 310, 296: 72, 297: 170, 298: 408, 299: 478, 300: 240, 301: 666, 302: 428, 303: 428, 304: 666, 305: 156, 306: 394, 307: 722, 308: 484, 309: 408, 310: 170, 311: 240, 312: 478, 313: 170, 314: 408, 315: 428, 316: 666, 317: 170, 318: 408, 319: 100, 320: 338, 321: 72, 322: 310, 323: 778, 324: 540, 325: 722, 326: 484, 327: 394, 328: 156, 329: 72, 330: 310, 331: 268, 332: 30, 333: 540, 334: 778, 335: 268, 336: 30, 337: 156, 338: 394, 339: 408, 340: 170, 341: 722, 342: 484, 343: 156, 344: 394, 345: 722, 346: 484, 347: 540, 348: 778, 349: 170, 350: 408, 351: 170, 352: 408, 353: 484, 354: 722, 355: 156, 356: 394, 357: 484, 358: 722, 359: 484, 360: 722, 361: 310, 362: 72, 363: 394, 364: 156, 365: 428, 366: 666, 367: 484, 368: 722, 369: 72, 370: 310, 371: 30, 372: 268, 373: 394, 374: 156, 375: 428, 376: 666, 377: 338, 378: 100, 379: 394, 380: 156, 381: 268, 382: 30, 383: 394, 384: 156, 385: 428, 386: 666, 387: 428, 388: 666, 389: 484, 390: 722, 391: 156, 392: 394, 393: 666, 394: 428, 395: 72, 396: 310, 397: 778, 398: 540, 399: 484, 400: 722}
Number of labels used: 18
Total time: 33.32 sec
Memory: 279.18 MB
=============================================
*     0+    0                           14.0000       14.0000             0.00%
      0     0        cutoff             14.0000       14.0000     7168    0.00%
Elapsed time = 6.83 sec. (7865.56 ticks, tree = 0.01 MB, solutions = 4)

Root node processing (before b&c):
  Real time             =    6.83 sec. (7866.36 ticks)
Parallel b&c, 12 threads:
  Real time             =    0.00 sec. (0.00 ticks)
  Sync time (average)   =    0.00 sec.
  Wait time (average)   =    0.00 sec.
                          ------------
Total (root+branch&cut) =    6.83 sec. (7866.36 ticks)
Solution :
{428, 666, 512, 750, 282, 44, 750, 512, 750, 512, 128, 366, 428, 666, 680, 442, 44, 282, 142, 380, 512, 750, 282, 44, 44, 282, 44, 282, 512, 750, 428, 666, 428, 666, 380, 142, 380, 142, 512, 750, 666, 428, 380, 142, 680, 442, 44, 282, 750, 512, 512, 750, 240, 478, 128, 366, 428, 666, 750, 512, 44, 282, 750, 512, 750, 512, 380, 142, 142, 380, 142, 380, 428, 666, 750, 512, 512, 750, 366, 128, 282, 44, 680, 442, 428, 666, 282, 44, 512, 750, 750, 512, 442, 680, 750, 512, 512, 750, 680, 442, 366, 128, 366, 128, 666, 428, 282, 44, 442, 680, 380, 142, 380, 142, 380, 142, 512, 750, 142, 380, 282, 44, 428, 666, 680, 442, 282, 44, 142, 380, 366, 128, 512, 750, 478, 240, 666, 428, 442, 680, 44, 282, 512, 750, 512, 750, 142, 380, 128, 366, 282, 44, 442, 680, 142, 380, 44, 282, 44, 282, 442, 680, 380, 142, 282, 44, 142, 380, 380, 142, 380, 142, 282, 44, 750, 512, 44, 282, 240, 478, 442, 680, 666, 428, 44, 282, 44, 282, 380, 142, 128, 366, 128, 366, 366, 128, 44, 282, 128, 366, 442, 680, 366, 128, 128, 366, 666, 428, 380, 142, 366, 128, 142, 380, 442, 680, 44, 282, 680, 442, 428, 666, 380, 142, 282, 44, 142, 380, 428, 666, 380, 142, 44, 282, 666, 428, 128, 366, 44, 282, 142, 380, 44, 282, 680, 442, 240, 478, 366, 128, 282, 44, 666, 428, 240, 478, 750, 512, 142, 380, 44, 282, 380, 142, 240, 478, 442, 680, 666, 428, 750, 512, 142, 380, 750, 512, 366, 128, 282, 44, 128, 366, 750, 512, 240, 478, 442, 680, 142, 380, 478, 240, 380, 142, 128, 366, 380, 142, 478, 240, 366, 128, 128, 366, 750, 512, 680, 442, 240, 478, 478, 240, 142, 380, 428, 666, 240, 478, 142, 380, 442, 680, 750, 512, 680, 442, 512, 750, 282, 44, 142, 380, 282, 44, 666, 428, 282, 44, 240, 478, 680, 442, 680, 442, 282, 44, 282, 44, 240, 478, 478, 240, 282, 44, 442, 680, 512, 750, 428, 666, 512, 750, 666, 428, 428, 666, 44, 282, 428, 666, 680, 442, 142, 380, 680, 442, 442, 680, 750, 512, 442, 680, 428, 666, 142, 380, 44, 282, 442, 680, 380, 142, 666, 428, 512, 750, 128, 366, 44, 282}
Number of labels used: 14
[runlim] end:			Tue Jan 20 19:44:10 2026
[runlim] status:		ok
[runlim] result:		0
[runlim] children:		0
[runlim] real:			37.45 seconds
[runlim] time:			49.05 seconds
[runlim] space:			333.7 MB
[runlim] samples:		371
